# Solution for model hibernation_srl_ilp
# Objective value = 1.4207668362182591e+01
Z_377_0_0 0
Z_377_0_1 1
Z_377_0_2 0
Z_377_0_3 0
Z_377_0_4 0
Z_443_0_0 0
Z_443_0_1 0
Z_443_0_2 0
Z_443_0_3 0
Z_443_0_4 1
Z_523_1_0 0
Z_523_1_1 0
Z_523_1_2 0
Z_523_1_3 0
Z_523_1_4 1
Z_523_3_0 0
Z_523_3_1 0
Z_523_3_2 0
Z_523_3_3 0
Z_523_3_4 1
Z_523_2_0 0
Z_523_2_1 0
Z_523_2_2 0
Z_523_2_3 0
Z_523_2_4 1
Z_523_0_0 0
Z_523_0_1 1
Z_523_0_2 0
Z_523_0_3 0
Z_523_0_4 0
Z_746_0_0 0
Z_746_0_1 0
Z_746_0_2 0
Z_746_0_3 1
Z_746_0_4 0
Z_605_3_0 0
Z_605_3_1 0
Z_605_3_2 0
Z_605_3_3 0
Z_605_3_4 1
Z_605_2_0 0
Z_605_2_1 0
Z_605_2_2 0
Z_605_2_3 0
Z_605_2_4 1
Z_605_1_0 0
Z_605_1_1 0
Z_605_1_2 0
Z_605_1_3 0
Z_605_1_4 1
Z_605_5_0 0
Z_605_5_1 0
Z_605_5_2 0
Z_605_5_3 0
Z_605_5_4 1
Z_605_0_0 0
Z_605_0_1 0
Z_605_0_2 0
Z_605_0_3 0
Z_605_0_4 1
Z_605_4_0 0
Z_605_4_1 0
Z_605_4_2 0
Z_605_4_3 0
Z_605_4_4 1
Z_383_1_0 0
Z_383_1_1 0
Z_383_1_2 0
Z_383_1_3 0
Z_383_1_4 1
Z_383_3_0 0
Z_383_3_1 0
Z_383_3_2 0
Z_383_3_3 0
Z_383_3_4 1
Z_383_2_0 0
Z_383_2_1 0
Z_383_2_2 0
Z_383_2_3 0
Z_383_2_4 1
Z_262_0_0 0
Z_262_0_1 1
Z_262_0_2 0
Z_262_0_3 0
Z_262_0_4 0
Z_472_0_0 0
Z_472_0_1 0
Z_472_0_2 0
Z_472_0_3 1
Z_472_0_4 0
Z_8_0_0 0
Z_8_0_1 0
Z_8_0_2 0
Z_8_0_3 0
Z_8_0_4 1
Z_569_0_0 0
Z_569_0_1 1
Z_569_0_2 0
Z_569_0_3 0
Z_569_0_4 0
